File : Instances/p68
Use 137 s

22450

0 0 1 1 0 0 1 1 1 0 1 1 0 0 0 0 1 0 0 1 1 0 0 1 1 1 0 1 0 1 
7 19 2 27 2 6 2 27 27 27 29 19 10 3 19 7 3 20 27 27 27 16 23 24 10 27 27 19 29 2 19 19 19 16 27 6 20 8 24 16 7 8 6 29 8 19 3 2 19 20 24 16 24 16 8 6 11 8 27 7 29 2 7 8 3 11 23 19 19 25 7 6 19 8 23 23 20 23 8 16 10 2 8 25 29 10 6 2 27 7 11 6 25 25 2 3 11 6 2 11 19 16 25 7 29 24 29 24 27 3 19 29 27 6 11 8 11 7 10 8 20 11 27 19 19 16 2 11 19 10 11 24 25 20 23 8 3 3 11 10 11 27 11 11 25 2 24 16 27 25 24 10 23 24 8 11 2 16 3 3 3 27 10 24 23 27 23 29 3 2 23 20 19 10 29 2 24 10 29 10 2 16 2 19 11 8 11 23 27 24 2 16 6 29 7 6 7 2 10 19 
